LAMMPS (29 Oct 2020)
OMP_NUM_THREADS environment is not set. Defaulting to 1 thread. (src/comm.cpp:94)
  using 1 OpenMP thread(s) per MPI task
# Ar in metal units

# simulation params in reduced units
# settable from command line
# epsilon, sigma, mass set below

variable	x index 5
variable	y index 5
variable	z index 5
variable        rhostar index 0.8842
variable        dt index 0.005
variable        cutoff index 2.5
variable        skin index 0.3
variable        tinitial index 1.0
variable        nthermo index 10
variable        nsteps index 1000

# physical constants from update.cpp

variable        kb index 8.617343e-5          # kB in eV/K
variable        avogadro index 6.02214129e23  # Avogadro's number

# Ar properties in metal units

variable        epskb index 117.7             # LJ epsilon/kB in degrees K
variable        sigma index 3.504             # LJ sigma in Angstroms
variable        epsilon equal ${epskb}*${kb}  # LJ epsilon in eV
variable        epsilon equal 117.7*${kb}  
variable        epsilon equal 117.7*8.617343e-5  
variable        mass index 39.95              # mass in g/mole

# scale factors

# sigma = scale factor on distance, converts reduced distance to Angs
# epsilon = scale factor on energy, converts reduced energy to eV
# tmpscale = scale factor on temperature, converts reduced temp to degrees K
# tscale = scale factor on time, converts reduced time to ps
#   formula is t = t* / sqrt(epsilon/mass/sigma^2), but need t in fs
#   use epsilon (Joule), mass (kg/atom), sigma (meter) to get t in seconds
# pscale = scale factor on pressure, converts reduced pressure to bars
#   formula is P = P* / (sigma^3/epsilon), but need P in atmospheres
#   use sigma (meter), epsilon (Joule) to get P in nt/meter^2, convert to bars

variable        eVtoJoule index 1.602e-19     # convert eV to Joules
variable        NtMtoAtm equal 1.0e-5         # convert Nt/meter^2 to bars

variable        tmpscale equal ${epskb}
variable        tmpscale equal 117.7
variable        epsilonJ equal ${epsilon}*${eVtoJoule}
variable        epsilonJ equal 0.010142612711*${eVtoJoule}
variable        epsilonJ equal 0.010142612711*1.602e-19
variable        massKgAtom equal ${mass}/1000.0/${avogadro}
variable        massKgAtom equal 39.95/1000.0/${avogadro}
variable        massKgAtom equal 39.95/1000.0/6.02214129e23
variable        sigmaM equal ${sigma}/1.0e10
variable        sigmaM equal 3.504/1.0e10
variable        sigmaMsq equal ${sigmaM}*${sigmaM}
variable        sigmaMsq equal 3.504e-10*${sigmaM}
variable        sigmaMsq equal 3.504e-10*3.504e-10
variable        tscale equal 1.0e12/sqrt(${epsilonJ}/${massKgAtom}/${sigmaMsq})
variable        tscale equal 1.0e12/sqrt(1.6248465563022e-21/${massKgAtom}/${sigmaMsq})
variable        tscale equal 1.0e12/sqrt(1.6248465563022e-21/6.6338529895236e-26/${sigmaMsq})
variable        tscale equal 1.0e12/sqrt(1.6248465563022e-21/6.6338529895236e-26/1.2278016e-19)
variable        sigmaM3 equal ${sigmaM}*${sigmaM}*${sigmaM}
variable        sigmaM3 equal 3.504e-10*${sigmaM}*${sigmaM}
variable        sigmaM3 equal 3.504e-10*3.504e-10*${sigmaM}
variable        sigmaM3 equal 3.504e-10*3.504e-10*3.504e-10
variable        pscale equal ${NtMtoAtm}/(${sigmaM3}/(${epsilonJ}))
variable        pscale equal 1e-05/(${sigmaM3}/(${epsilonJ}))
variable        pscale equal 1e-05/(4.3022168064e-29/(${epsilonJ}))
variable        pscale equal 1e-05/(4.3022168064e-29/(1.6248465563022e-21))

# variables
# alat = lattice constant in Angs (at reduced density rhostar)
# temp = reduced temperature for output
# epair,emol,etotal = reduced epair,emol,etotal energies for output
# press = reduced pressure for output

variable        alat equal (4.0*${sigma}*${sigma}*${sigma}/${rhostar})^(1.0/3.0)
variable        alat equal (4.0*3.504*${sigma}*${sigma}/${rhostar})^(1.0/3.0)
variable        alat equal (4.0*3.504*3.504*${sigma}/${rhostar})^(1.0/3.0)
variable        alat equal (4.0*3.504*3.504*3.504/${rhostar})^(1.0/3.0)
variable        alat equal (4.0*3.504*3.504*3.504/0.8842)^(1.0/3.0)
variable        temp equal temp/${tmpscale}
variable        temp equal temp/117.7
variable        epair equal epair/${epsilon}
variable        epair equal epair/0.010142612711
variable        emol equal emol/${epsilon}
variable        emol equal emol/0.010142612711
variable        etotal equal etotal/${epsilon}
variable        etotal equal etotal/0.010142612711
variable        press equal press/${pscale}
variable        press equal press/377.676586146256

# same script as in.ar.lj

units		metal
atom_style	atomic

lattice		fcc ${alat}
lattice		fcc 5.79518437579763
Lattice spacing in x,y,z = 5.7951844 5.7951844 5.7951844
region		box block 0 $x 0 $y 0 $z
region		box block 0 5 0 $y 0 $z
region		box block 0 5 0 5 0 $z
region		box block 0 5 0 5 0 5
create_box	1 box
Created orthogonal box = (0.0000000 0.0000000 0.0000000) to (28.975922 28.975922 28.975922)
  1 by 1 by 1 MPI processor grid
create_atoms	1 box
Created 500 atoms
  create_atoms CPU = 0.000 seconds
mass		1 ${mass}
mass		1 39.95

velocity	all create $(v_tinitial*v_epskb) 12345
velocity	all create 117.70000000000000284 12345

pair_style	lj/cut $(v_cutoff*v_sigma)
pair_style	lj/cut 8.7599999999999997868
pair_coeff	1 1 ${epsilon} ${sigma}
pair_coeff	1 1 0.010142612711 ${sigma}
pair_coeff	1 1 0.010142612711 3.504

neighbor	$(v_skin*v_sigma) bin
neighbor	1.0511999999999999122 bin
neigh_modify	delay 0 every 20 check no

fix		1 all nve

timestep	$(v_dt*v_tscale)
timestep	0.011194658410003900315

# columns 2,3,4 = temp,pe,press in metal units
# columns 5-9 = temp,energy.press in reduced units, compare to in.ar.lj
# need to include metal unit output to enable use of reduced variables

thermo_style    custom step temp pe press v_temp v_epair v_emol v_etotal v_press
thermo_modify	norm yes
thermo		${nthermo}
thermo		10

run		${nsteps}
run		1000
Neighbor list info ...
  update every 20 steps, delay 0 steps, check no
  max neighbors/atom: 2000, page size: 100000
  master list distance cutoff = 9.8112
  ghost atom cutoff = 9.8112
  binsize = 4.9056, bins = 6 6 6
  1 neighbor lists, perpetual/occasional/extra = 1 0 0
  (1) pair lj/cut, perpetual
      attributes: half, newton on
      pair build: half/bin/atomonly/newton
      stencil: half/bin/3d/newton
      bin: standard
Per MPI rank memory allocation (min/avg/max) = 2.644 | 2.644 | 2.644 Mbytes
Step Temp PotEng Press v_temp v_epair v_emol v_etotal v_press 
       0        117.7  -0.07203931   -1934.8523            1   -7.1026383            0   -5.6056383     -5.12304 
      10    87.345225  -0.06820404   -1184.5618   0.74210047    -6.724504            0   -5.6135796   -3.1364449 
      20    42.569809 -0.062561408   -152.82812   0.36168062   -6.1681748            0   -5.6267389  -0.40465341 
      30    55.137637 -0.064219154   -392.49645   0.46845911   -6.3316185            0   -5.6303352   -1.0392396 
      40    55.053014 -0.064210828   -406.99941   0.46774014   -6.3307976            0   -5.6305906     -1.07764 
      50     56.87723 -0.064439241   -434.61958     0.483239   -6.3533177            0   -5.6299089   -1.1507718 
      60    58.344019 -0.064620383    -464.4684    0.4957011   -6.3711772            0   -5.6291126   -1.2298046 
      70     61.30301 -0.065010529   -547.09852    0.5208412   -6.4096433            0    -5.629944     -1.44859 
      80    63.214836 -0.065263563   -602.29599   0.53708442   -6.4345909            0   -5.6305755   -1.5947401 
      90    61.931826 -0.065101194    -576.5342   0.52618374   -6.4185823            0   -5.6308852   -1.5265288 
     100    62.221816 -0.065148028   -593.59878   0.52864755   -6.4231998            0   -5.6318144   -1.5717119 
     110    65.099967 -0.065525428   -657.63388   0.55310083   -6.4604092            0   -5.6324172    -1.741262 
     120    60.344223 -0.064898061    -552.3566   0.51269518   -6.3985546            0   -5.6310499   -1.4625122 
     130    61.293148 -0.065023957   -574.29314   0.52075742   -6.4109672            0   -5.6313933    -1.520595 
     140    65.250676 -0.065523401   -674.28532   0.55438127   -6.4602093            0   -5.6303006   -1.7853511 
     150    64.674692 -0.065448415   -663.51994   0.54948762   -6.4528161            0   -5.6302332   -1.7568469 
     160    63.585868 -0.065309184   -623.29914   0.54023677   -6.4390888            0   -5.6303543   -1.6503516 
     170    62.199855 -0.065135921   -595.67595   0.52846096   -6.4220062            0   -5.6309001   -1.5772117 
     180    62.968367 -0.065243413   -627.18108   0.53499037   -6.4326042            0   -5.6317236     -1.66063 
     190    64.683517 -0.065462064    -670.9141   0.54956259   -6.4541619            0   -5.6314667   -1.7764249 
     200    65.703708 -0.065584976   -686.27971   0.55823031   -6.4662802            0   -5.6306094   -1.8171095 
     210    63.130325 -0.065250231   -625.86732   0.53636639   -6.4332764            0   -5.6303359   -1.6571515 
     220    63.504204 -0.065305839    -627.6671   0.53954294    -6.438759            0   -5.6310632   -1.6619169 
     230    62.639502 -0.065185217   -606.47703   0.53219628   -6.4268664            0   -5.6301686   -1.6058105 
     240    61.097226 -0.064992233   -579.50621   0.51909283   -6.4078394            0   -5.6307574    -1.534398 
     250    63.532596 -0.065294792     -628.757   0.53978416   -6.4376698            0   -5.6296129   -1.6648027 
     260    62.139037 -0.065117985   -598.63375   0.52794424   -6.4202377            0   -5.6299052   -1.5850433 
     270    63.992697 -0.065357472   -640.27295   0.54369327   -6.4438498            0   -5.6299409   -1.6952943 
     280     64.83657 -0.065460335   -656.67173   0.55086295   -6.4539914            0   -5.6293495   -1.7387144 
     290    62.521854 -0.065167325   -596.98644   0.53119672   -6.4251023            0   -5.6299008   -1.5806816 
     300    62.826442 -0.065202433   -600.68015   0.53378456   -6.4285638            0   -5.6294883   -1.5904617 
     310    65.278992 -0.065508048   -656.36375   0.55462185   -6.4586955            0   -5.6284266    -1.737899 
     320    65.954576  -0.06559837   -674.09963   0.56036174   -6.4676008            0   -5.6287393   -1.7848595 
     330    64.151275 -0.065360703   -636.51611   0.54504057   -6.4441682            0   -5.6282425    -1.685347 
     340    62.385268 -0.065134841   -595.67342   0.53003627   -6.4218997            0   -5.6284354    -1.577205 
     350     61.53773  -0.06503871   -570.18751   0.52283543   -6.4124217            0   -5.6297371   -1.5097243 
     360     62.04927 -0.065084733   -577.11528   0.52718157   -6.4169593            0   -5.6277685   -1.5280674 
     370    62.770258 -0.065174447   -598.95592   0.53330721   -6.4258046            0   -5.6274437   -1.5858963 
     380    64.385977 -0.065385033   -635.31736   0.54703464    -6.446567            0   -5.6276562    -1.682173 
     390     61.46489 -0.065033153   -578.18647   0.52221657   -6.4118738            0   -5.6301156   -1.5309037 
     400    63.601786 -0.065307592   -623.64817   0.54037202   -6.4389318            0   -5.6299949   -1.6512757 
     410    63.148978 -0.065248957   -619.45153   0.53652487   -6.4331508            0    -5.629973    -1.640164 
     420    63.159638 -0.065253046   -610.81312   0.53661545    -6.433554            0   -5.6302407   -1.6172915 
     430     61.93414 -0.065092419   -584.44575    0.5262034   -6.4177171            0   -5.6299906   -1.5474768 
     440    62.738707 -0.065202298   -604.43981   0.53303914   -6.4285505            0   -5.6305909   -1.6004164 
     450    63.782204 -0.065331612   -625.80769   0.54190488   -6.4413001            0   -5.6300685   -1.6569936 
     460    64.198481 -0.065385862   -633.72538   0.54544164   -6.4466488            0   -5.6301227   -1.6779578 
     470    62.896381 -0.065217858   -611.35559   0.53437877   -6.4300846            0   -5.6301196   -1.6187278 
     480    65.073359 -0.065488647   -661.07754   0.55287476   -6.4567828            0   -5.6291293     -1.75038 
     490    61.587883 -0.065031939   -590.20982   0.52326154   -6.4117542            0   -5.6284316   -1.5627387 
     500    63.475559 -0.065280037   -627.46734   0.53929957   -6.4362151            0   -5.6288837    -1.661388 
     510    65.991809 -0.065601428    -693.6408   0.56067807   -6.4679023            0   -5.6285672      -1.8366 
     520    65.651204 -0.065547169   -693.96124   0.55778423   -6.4625527            0   -5.6275497   -1.8374484 
     530    64.437872 -0.065391191   -661.36979   0.54747555   -6.4471742            0   -5.6276033   -1.7511538 
     540    63.216423 -0.065253241   -621.21031    0.5370979   -6.4335731            0   -5.6295376   -1.6448208 
     550     60.13784 -0.064863817   -552.30283   0.51094171   -6.3951783            0   -5.6302986   -1.4623698 
     560    61.108026 -0.064989405    -573.8647   0.51918459   -6.4075606            0   -5.6303412   -1.5194606 
     570    63.377229 -0.065280232   -619.96639   0.53846414   -6.4362343            0   -5.6301535   -1.6415272 
     580    61.879627  -0.06507441    -574.1256   0.52574024   -6.4159415            0   -5.6289084   -1.5201514 
     590    62.126675 -0.065106153   -570.31755   0.52783921   -6.4190712            0   -5.6288959   -1.5100686 
     600    65.158909 -0.065497705   -639.52659    0.5536016   -6.4576758            0   -5.6289342   -1.6933181 
     610     63.66028 -0.065311161   -620.47898   0.54086899   -6.4392837            0   -5.6296029   -1.6428844 
     620    64.701638 -0.065436022   -649.28591   0.54971655   -6.4515943            0   -5.6286686   -1.7191585 
     630    64.857824 -0.065453445   -658.41191   0.55104353   -6.4533121            0   -5.6283999    -1.743322 
     640    63.250046 -0.065247819   -628.94851   0.53738357   -6.4330386            0   -5.6285754   -1.6653098 
     650    62.182466 -0.065118247   -613.60338   0.52831322   -6.4202636            0   -5.6293787   -1.6246794 
     660    64.202553 -0.065376631   -650.52967   0.54547624   -6.4457386            0   -5.6291607   -1.7224517 
     670    63.185569 -0.065236218   -614.87199   0.53683576   -6.4318948            0   -5.6282517   -1.6280384 
     680    64.533518  -0.06540569   -638.20976   0.54828817   -6.4486037            0   -5.6278163   -1.6898314 
     690    66.151536 -0.065613865    -681.4451   0.56203514   -6.4691285            0   -5.6277619   -1.8043086 
     700    62.913951 -0.065206895    -624.3313   0.53452804   -6.4290037            0   -5.6288152   -1.6530845 
     710    61.735777 -0.065060728   -596.23181   0.52451807   -6.4145926            0    -5.629389   -1.5786835 
     720     61.94759 -0.065070854   -591.16309   0.52631767   -6.4155909            0   -5.6276933   -1.5652628 
     730    62.389992 -0.065131644   -600.35244    0.5300764   -6.4215844            0     -5.62806    -1.589594 
     740    64.831683 -0.065449398   -647.00594   0.55082143   -6.4529131            0   -5.6283334   -1.7131217 
     750    64.243794 -0.065372576   -638.45718   0.54582663   -6.4453389            0   -5.6282364   -1.6904865 
     760    64.849167 -0.065449106   -659.91259   0.55096999   -6.4528843            0   -5.6280822   -1.7472955 
     770    63.692362 -0.065309123   -637.85437   0.54114157   -6.4390828            0   -5.6289939   -1.6888904 
     780    62.525437 -0.065175093   -613.66843   0.53122716   -6.4258683            0   -5.6306212   -1.6248517 
     790    63.532638 -0.065302954   -633.03001   0.53978452   -6.4384745            0   -5.6304171   -1.6761166 
     800     63.08614 -0.065249762   -607.78644   0.53599099   -6.4332302            0   -5.6308517   -1.6092775 
     810    61.242131 -0.065000701   -564.98113   0.52032397   -6.4086742            0   -5.6297492    -1.495939 
     820    65.230376 -0.065509351   -648.10214    0.5542088   -6.4588241            0   -5.6291735   -1.7160241 
     830    62.043414 -0.065100659   -587.57214   0.52713181   -6.4185296            0   -5.6294132   -1.5557547 
     840    63.001078 -0.065232928   -600.05737   0.53526829   -6.4315704            0   -5.6302738   -1.5888127 
     850    61.457467 -0.065034539   -573.32914    0.5221535   -6.4120105            0   -5.6303467   -1.5180426 
     860    63.425494 -0.065287079   -619.32941   0.53887421   -6.4369094            0   -5.6302147   -1.6398406 
     870    63.963508 -0.065353696    -631.7321   0.54344526   -6.4434774            0   -5.6299398   -1.6726801 
     880    61.422898  -0.06502063   -585.01514   0.52185979   -6.4106391            0    -5.629415   -1.5489844 
     890    65.326731 -0.065520667   -662.71063   0.55502745   -6.4599397            0   -5.6290636    -1.754704 
     900    62.440189 -0.065159138   -613.42512   0.53050288   -6.4242952            0   -5.6301324   -1.6242074 
     910    63.743649 -0.065325674   -639.08379   0.54157731   -6.4407146            0   -5.6299734   -1.6921457 
     920    62.978921 -0.065239632   -625.02685   0.53508004   -6.4322314            0   -5.6312166   -1.6549261 
     930     64.95771 -0.065491843   -676.40451   0.55189218   -6.4570979            0   -5.6309153   -1.7909623 
     940    66.708417 -0.065713883   -710.21142    0.5667665   -6.4789897            0   -5.6305402   -1.8804751 
     950    62.353007 -0.065148595   -601.42117   0.52976217   -6.4232557            0   -5.6302018   -1.5924238 
     960    59.730544 -0.064798286   -532.07276   0.50748126   -6.3887174            0   -5.6290179   -1.4088053 
     970    62.742604 -0.065184254    -595.9148   0.53307225   -6.4267715            0   -5.6287623   -1.5778442 
     980    66.576095 -0.065678665   -686.94229   0.56564227   -6.4755174            0   -5.6287509   -1.8188639 
     990    61.981179 -0.065097466   -597.76001   0.52660305   -6.4182147            0   -5.6298899   -1.5827298 
    1000    62.690856 -0.065195906   -600.30937   0.53263259   -6.4279203            0   -5.6305693     -1.58948 
Loop time of 0.920586 on 1 procs for 1000 steps with 500 atoms

Performance: 1050.655 ns/day, 0.023 hours/ns, 1086.264 timesteps/s
99.5% CPU use with 1 MPI tasks x 1 OpenMP threads

MPI task timing breakdown:
Section |  min time  |  avg time  |  max time  |%varavg| %total
---------------------------------------------------------------
Pair    | 0.76976    | 0.76976    | 0.76976    |   0.0 | 83.62
Neigh   | 0.087842   | 0.087842   | 0.087842   |   0.0 |  9.54
Comm    | 0.039981   | 0.039981   | 0.039981   |   0.0 |  4.34
Output  | 0.0030413  | 0.0030413  | 0.0030413  |   0.0 |  0.33
Modify  | 0.016587   | 0.016587   | 0.016587   |   0.0 |  1.80
Other   |            | 0.003376   |            |       |  0.37

Nlocal:        500.000 ave         500 max         500 min
Histogram: 1 0 0 0 0 0 0 0 0 0
Nghost:        1956.00 ave        1956 max        1956 min
Histogram: 1 0 0 0 0 0 0 0 0 0
Neighs:        19614.0 ave       19614 max       19614 min
Histogram: 1 0 0 0 0 0 0 0 0 0

Total # of neighbors = 19614
Ave neighs/atom = 39.228000
Neighbor list builds = 50
Dangerous builds not checked
Total wall time: 0:00:00
